# Solution for model r5_t18_m3_9 Batch Number: 4
# Finished Task: 9 / 18
# Makespan: 481.0, Total Distance: 164.0, Total Time: 0.6736
# R O S F Batch
0 0 16 0.0 0.0 -1
1 1 9 0.0 0.0 -1
2 2 15 0.0 0.0 -1
3 3 19 0.0 0.0 -1
4 4 -1 0.0 0.0 -1
5 1 -1 446.0 481.0 3
6 -1 -1 -1.0 -1.0 1
7 -1 -1 -1.0 -1.0 2
8 -1 -1 -1.0 -1.0 3
9 1 14 284.0 309.0 0
10 -1 -1 -1.0 -1.0 2
11 -1 -1 -1.0 -1.0 2
12 -1 -1 -1.0 -1.0 3
13 -1 -1 -1.0 -1.0 3
14 1 5 383.0 420.0 1
15 2 18 42.0 72.0 0
16 0 -1 66.0 97.0 0
17 2 22 299.0 322.0 0
18 2 17 238.0 270.0 0
19 3 -1 309.0 344.0 0
20 -1 -1 -1.0 -1.0 3
21 -1 -1 -1.0 -1.0 3
22 2 -1 346.0 383.0 1
